NAME : rnd46_50.tsp
TYPE : TSP
DIMENSION : 50
EDGE_WEIGHT_TYPE : EUC_2D
NODE_COORD_SECTION
1 580 970
2 524 561
3 213 170
4 391 114
5 724 112
6 485 282
7 402 548
8 59 54
9 592 817
10 720 906
11 900 459
12 698 334
13 314 418
14 822 564
15 667 819
16 590 113
17 513 146
18 701 710
19 775 129
20 133 17
21 996 734
22 721 790
23 115 653
24 434 174
25 825 27
26 602 575
27 15 118
28 932 4
29 837 156
30 547 599
31 563 171
32 936 826
33 26 385
34 601 411
35 152 799
36 269 721
37 567 627
38 693 770
39 115 376
40 381 797
41 791 652
42 927 608
43 44 245
44 578 839
45 11 713
46 63 857
47 474 496
48 547 792
49 813 587
50 350 338
